NAME : SOLVED
COMMENT : Solved with tsp_solver (Copyright Chase Yalon)
TYPE : TSP
DIMENSION: 279
EDGE_WEIGHT_TYPE : EUC_2D
NODE_COORD_SECTION
1   8   41
2   24   45
3   32   49
4   32   41
5   40   51
6   32   57
7   32   65
8   40   63
9   48   63
10   48   73
11   40   73
12   32   73
13   32   81
14   24   89
15   32   97
16   32   89
17   40   83
18   48   83
19   56   89
20   56   81
21   56   73
22   56   65
23   56   57
24   72   49
25   88   49
26   80   41
27   72   41
28   64   41
29   56   33
30   56   41
31   56   49
32   48   51
33   44   43
34   44   35
35   44   27
36   32   25
37   24   25
38   16   25
39   16   17
40   24   17
41   32   17
42   44   11
43   56   9
44   56   25
45   56   17
46   64   21
47   72   25
48   80   25
49   72   9
50   80   9
51   92   9
52   104   17
53   104   25
54   104   33
55   104   41
56   104   49
57   104   57
58   104   65
59   104   73
60   104   81
61   104   89
62   104   97
63   104   105
64   104   113
65   104   121
66   104   129
67   104   137
68   104   145
69   116   145
70   124   145
71   132   145
72   140   145
73   148   145
74   156   145
75   164   145
76   172   145
77   164   137
78   156   137
79   148   137
80   140   137
81   132   137
82   124   125
83   124   117
84   124   109
85   124   101
86   124   93
87   124   85
88   132   81
89   124   77
90   124   69
91   148   85
92   140   65
93   132   61
94   124   61
95   124   53
96   124   45
97   124   37
98   124   29
99   124   21
100   132   21
101   120   9
102   128   9
103   136   9
104   148   9
105   162   9
106   156   25
107   172   21
108   172   29
109   180   21
110   180   29
111   180   37
112   172   37
113   172   45
114   172   53
115   172   61
116   172   69
117   172   77
118   164   81
119   172   85
120   172   93
121   172   101
122   172   109
123   172   117
124   172   125
125   180   125
126   180   117
127   180   109
128   180   101
129   180   93
130   188   93
131   180   85
132   180   77
133   180   69
134   180   61
135   180   53
136   180   45
137   188   41
138   196   49
139   204   57
140   212   65
141   220   73
142   228   69
143   228   77
144   228   85
145   228   93
146   228   101
147   228   109
148   236   101
149   236   93
150   236   85
151   236   77
152   236   69
153   236   61
154   228   61
155   236   53
156   228   53
157   228   45
158   236   45
159   236   37
160   228   37
161   228   29
162   228   21
163   236   21
164   236   29
165   252   21
166   260   29
167   260   37
168   260   45
169   260   53
170   260   61
171   260   69
172   260   77
173   260   85
174   260   93
175   252   101
176   260   109
177   268   97
178   276   93
179   276   85
180   276   77
181   276   69
182   276   61
183   276   53
184   284   53
185   284   61
186   284   69
187   284   77
188   284   85
189   284   93
190   284   101
191   276   101
192   280   109
193   288   109
194   288   129
195   280   133
196   288   149
197   270   133
198   260   129
199   252   125
200   228   117
201   228   125
202   220   125
203   212   117
204   204   109
205   196   101
206   188   145
207   196   145
208   204   145
209   212   145
210   220   145
211   228   145
212   236   145
213   246   141
214   256   141
215   256   157
216   246   157
217   236   169
218   228   161
219   228   169
220   220   169
221   212   169
222   204   169
223   196   161
224   196   169
225   188   169
226   172   169
227   164   169
228   156   169
229   148   169
230   140   169
231   132   169
232   124   169
233   116   161
234   104   153
235   104   161
236   104   169
237   90   165
238   80   157
239   64   157
240   64   165
241   56   161
242   56   169
243   56   153
244   56   145
245   56   137
246   40   145
247   40   153
248   40   161
249   40   169
250   32   169
251   32   161
252   32   153
253   32   145
254   32   137
255   40   137
256   40   129
257   32   129
258   32   121
259   40   121
260   56   129
261   56   121
262   56   113
263   56   105
264   56   97
265   48   99
266   40   99
267   40   113
268   32   113
269   16   109
270   8   109
271   16   97
272   8   97
273   8   89
274   8   81
275   8   73
276   8   65
277   16   57
278   8   57
279   8   49
